(declare-fun ExpandObjSwitcher () Real)
(declare-fun Constructed_Argument_t () String)
(declare-fun Constructed_Argument_2_t () String)
(assert (= ExpandObjSwitcher 4.0))
(assert (= Constructed_Argument_t "string"))
(assert (not (= Constructed_Argument_2_t "string")))
(assert (not (= Constructed_Argument_2_t "number")))
(assert (not (= Constructed_Argument_2_t "boolean")))
(assert (not (= Constructed_Argument_2_t "object")))
(assert (not (= Constructed_Argument_2_t "array_number")))
(assert (not (= Constructed_Argument_2_t "array_string")))
(assert (not (= Constructed_Argument_2_t "array_bool")))
(assert (= Constructed_Argument_2_t "null"))
(check-sat)
